100 1701,2647 717,250175 606,6889
200 14153,721 7822,860999999999 3585,2683
300 98622,3201 33855,57409999999 26001,2425
400 5969,8366 2910,3452500000003 754,1737
500 34259,7605 20516,718049999996 8000,6531
600 1552,7825 650,751775 600,3889
700 11875,1762 7329,913875 3634,6925
800 33721,9637 15371,68035 12013,2481
900 5979,9176 2884,4759750000003 696,8789
1000 33599,7366 20226,74465 7784,4805
